5 5
0 28 3 73 1 76 4 25 2 37
3 85 4 51 0 39 2 83 1 72
4 67 1 86 2 1 3 38 0 52
1 63 2 52 4 83 0 85 3 60
3 13 0 91 2 17 1 84 4 30
-1
0 4 5
0 1 2 3 5
0 2 3 4 5
0 1 4 5
0 1 2 3 5
-2
220 295
94 184 260 422
159 197 222 381
67 428 449
14 140 154 266

385 4
0 21 7 18 14
15 11 23 2 9
16 22 12 8 4
20 5 1 13 19
10 6 17 3 24
